

(declare-sort |dff_s| 0)
(declare-fun |dff_is| (|dff_s|) Bool)
(declare-fun |dff#0| (|dff_s|) Bool) 


(define-fun |dff_n CK| ((state |dff_s|)) Bool (|dff#0| state))
(declare-fun |dff#1| (|dff_s|) Bool) 


(define-fun |dff_n D| ((state |dff_s|)) Bool (|dff#1| state))
(define-fun |dff#2| ((state |dff_s|)) (_ BitVec 1) (bvnot (ite (|dff#0| state) #b1 #b0))) 
(define-fun |dff#3| ((state |dff_s|)) (_ BitVec 1) (ite (|dff#1| state) (|dff#2| state) #b0)) 
(define-fun |dff#4| ((state |dff_s|)) (_ BitVec 1) (ite (= ((_ extract 0 0) (|dff#3| state)) #b1) #b0 (ite (|dff#0| state) #b1 #b0))) 
(define-fun |dff#5| ((state |dff_s|)) (_ BitVec 1) (bvnot (|dff#4| state))) 

(define-fun |dff_n Q| ((state |dff_s|)) Bool (= ((_ extract 0 0) (|dff#5| state)) #b1))
(define-fun |dff_a| ((state |dff_s|)) Bool true)
(define-fun |dff_u| ((state |dff_s|)) Bool true)
(define-fun |dff_i| ((state |dff_s|)) Bool true)
(define-fun |dff_h| ((state |dff_s|)) Bool true)
(define-fun |dff_t| ((state |dff_s|) (next_state |dff_s|)) Bool true) 

(declare-sort |s382_s| 0)
(declare-fun |s382_is| (|s382_s|) Bool)
(declare-fun |s382#0| (|s382_s|) Bool) 


(define-fun |s382_n CK| ((state |s382_s|)) Bool (|s382#0| state))
(declare-fun |s382#1| (|s382_s|) Bool) 


(define-fun |s382_n CLR| ((state |s382_s|)) Bool (|s382#1| state))
(declare-fun |s382#2| (|s382_s|) Bool) 


(define-fun |s382_n FM| ((state |s382_s|)) Bool (|s382#2| state))
(declare-fun |s382#3| (|s382_s|) Bool) 


(define-fun |s382_n GND| ((state |s382_s|)) Bool (|s382#3| state))


(declare-fun |s382#4| (|s382_s|) Bool) 
(declare-fun |s382_h DFF_7| (|s382_s|) |dff_s|)

(define-fun |s382_n GRN1| ((state |s382_s|)) Bool (|s382#4| state))


(declare-fun |s382#5| (|s382_s|) Bool) 
(declare-fun |s382_h DFF_6| (|s382_s|) |dff_s|)

(define-fun |s382_n GRN2| ((state |s382_s|)) Bool (|s382#5| state))


(declare-fun |s382#6| (|s382_s|) Bool) 
(declare-fun |s382_h DFF_5| (|s382_s|) |dff_s|)

(define-fun |s382_n RED1| ((state |s382_s|)) Bool (|s382#6| state))


(declare-fun |s382#7| (|s382_s|) Bool) 
(declare-fun |s382_h DFF_4| (|s382_s|) |dff_s|)
(define-fun |s382#8| ((state |s382_s|)) (_ BitVec 1) (bvnot (ite (|s382#7| state) #b1 #b0))) 

(define-fun |s382_n RED2| ((state |s382_s|)) Bool (= ((_ extract 0 0) (|s382#8| state)) #b1))
(declare-fun |s382#9| (|s382_s|) Bool) 


(define-fun |s382_n TEST| ((state |s382_s|)) Bool (|s382#9| state))
(declare-fun |s382#10| (|s382_s|) Bool) 


(define-fun |s382_n VDD| ((state |s382_s|)) Bool (|s382#10| state))


(declare-fun |s382#11| (|s382_s|) Bool) 
(declare-fun |s382_h DFF_3| (|s382_s|) |dff_s|)
(define-fun |s382#12| ((state |s382_s|)) (_ BitVec 1) (bvnot (ite (|s382#11| state) #b1 #b0))) 

(define-fun |s382_n YLW1| ((state |s382_s|)) Bool (= ((_ extract 0 0) (|s382#12| state)) #b1))


(declare-fun |s382#13| (|s382_s|) Bool) 
(declare-fun |s382_h DFF_2| (|s382_s|) |dff_s|)

(define-fun |s382_n YLW2| ((state |s382_s|)) Bool (|s382#13| state))


(declare-fun |s382#14| (|s382_s|) Bool) 
(declare-fun |s382_h DFF_0| (|s382_s|) |dff_s|)


(declare-fun |s382#15| (|s382_s|) Bool) 
(declare-fun |s382_h DFF_1| (|s382_s|) |dff_s|)


(declare-fun |s382#16| (|s382_s|) Bool) 
(declare-fun |s382_h DFF_10| (|s382_s|) |dff_s|)


(declare-fun |s382#17| (|s382_s|) Bool) 
(declare-fun |s382_h DFF_11| (|s382_s|) |dff_s|)


(declare-fun |s382#18| (|s382_s|) Bool) 
(declare-fun |s382_h DFF_12| (|s382_s|) |dff_s|)


(declare-fun |s382#19| (|s382_s|) Bool) 
(declare-fun |s382_h DFF_13| (|s382_s|) |dff_s|)


(declare-fun |s382#20| (|s382_s|) Bool) 
(declare-fun |s382_h DFF_14| (|s382_s|) |dff_s|)


(declare-fun |s382#21| (|s382_s|) Bool) 
(declare-fun |s382_h DFF_15| (|s382_s|) |dff_s|)


(declare-fun |s382#22| (|s382_s|) Bool) 
(declare-fun |s382_h DFF_16| (|s382_s|) |dff_s|)


(declare-fun |s382#23| (|s382_s|) Bool) 
(declare-fun |s382_h DFF_17| (|s382_s|) |dff_s|)


(declare-fun |s382#24| (|s382_s|) Bool) 
(declare-fun |s382_h DFF_18| (|s382_s|) |dff_s|)


(declare-fun |s382#25| (|s382_s|) Bool) 
(declare-fun |s382_h DFF_19| (|s382_s|) |dff_s|)


(declare-fun |s382#26| (|s382_s|) Bool) 
(declare-fun |s382_h DFF_20| (|s382_s|) |dff_s|)


(declare-fun |s382#27| (|s382_s|) Bool) 
(declare-fun |s382_h DFF_8| (|s382_s|) |dff_s|)


(declare-fun |s382#28| (|s382_s|) Bool) 
(declare-fun |s382_h DFF_9| (|s382_s|) |dff_s|)
(define-fun |s382#29| ((state |s382_s|)) (_ BitVec 1) (bvnot (ite (|s382#1| state) #b1 #b0))) 
(define-fun |s382#30| ((state |s382_s|)) (_ BitVec 1) (bvnot (ite (|s382#9| state) #b1 #b0))) 
(define-fun |s382#31| ((state |s382_s|)) (_ BitVec 1) (bvnot (ite (|s382#14| state) #b1 #b0))) 
(define-fun |s382#32| ((state |s382_s|)) (_ BitVec 1) (bvor (|s382#30| state) (|s382#31| state))) 
(define-fun |s382#33| ((state |s382_s|)) (_ BitVec 1) (bvor (ite (|s382#9| state) #b1 #b0) (ite (|s382#14| state) #b1 #b0))) 
(define-fun |s382#34| ((state |s382_s|)) (_ BitVec 1) (bvand (|s382#32| state) (|s382#33| state))) 
(define-fun |s382#35| ((state |s382_s|)) (_ BitVec 1) (bvand (|s382#29| state) (|s382#34| state))) 
(define-fun |s382#36| ((state |s382_s|)) (_ BitVec 1) (bvnot (ite (|s382#2| state) #b1 #b0))) 
(define-fun |s382#37| ((state |s382_s|)) (_ BitVec 1) (bvnot (ite (|s382#15| state) #b1 #b0))) 
(define-fun |s382#38| ((state |s382_s|)) (_ BitVec 1) (bvor (|s382#36| state) (|s382#37| state))) 
(define-fun |s382#39| ((state |s382_s|)) (_ BitVec 1) (bvor (ite (|s382#2| state) #b1 #b0) (ite (|s382#15| state) #b1 #b0))) 
(define-fun |s382#40| ((state |s382_s|)) (_ BitVec 1) (bvand (|s382#38| state) (|s382#39| state))) 
(define-fun |s382#41| ((state |s382_s|)) (_ BitVec 1) (bvand (|s382#29| state) (|s382#40| state))) 
(define-fun |s382#42| ((state |s382_s|)) (_ BitVec 1) (bvnot (ite (|s382#27| state) #b1 #b0))) 
(define-fun |s382#43| ((state |s382_s|)) (_ BitVec 1) (bvand (|s382#29| state) (|s382#42| state))) 
(define-fun |s382#44| ((state |s382_s|)) (_ BitVec 1) (bvnot (ite (|s382#16| state) #b1 #b0))) 
(define-fun |s382#45| ((state |s382_s|)) (_ BitVec 1) (bvand (|s382#43| state) (|s382#44| state))) 
(define-fun |s382#46| ((state |s382_s|)) (_ BitVec 1) (bvand (|s382#45| state) (ite (|s382#17| state) #b1 #b0))) 
(define-fun |s382#47| ((state |s382_s|)) (_ BitVec 1) (bvnot (|s382#46| state))) 
(define-fun |s382#48| ((state |s382_s|)) (_ BitVec 1) (bvnot (ite (|s382#18| state) #b1 #b0))) 
(define-fun |s382#49| ((state |s382_s|)) (_ BitVec 1) (bvor (|s382#47| state) (|s382#48| state))) 
(define-fun |s382#50| ((state |s382_s|)) (_ BitVec 1) (bvnot (|s382#49| state))) 
(define-fun |s382#51| ((state |s382_s|)) (_ BitVec 1) (bvor (ite (|s382#1| state) #b1 #b0) (|s382#42| state))) 
(define-fun |s382#52| ((state |s382_s|)) (_ BitVec 1) (bvnot (|s382#51| state))) 
(define-fun |s382#53| ((state |s382_s|)) (_ BitVec 1) (bvnot (ite (|s382#17| state) #b1 #b0))) 
(define-fun |s382#54| ((state |s382_s|)) (_ BitVec 1) (bvand (|s382#53| state) (ite (|s382#18| state) #b1 #b0))) 
(define-fun |s382#55| ((state |s382_s|)) (_ BitVec 1) (bvnot (|s382#54| state))) 
(define-fun |s382#56| ((state |s382_s|)) (_ BitVec 1) (bvor (|s382#55| state) (ite (|s382#15| state) #b1 #b0))) 
(define-fun |s382#57| ((state |s382_s|)) (_ BitVec 1) (bvor (|s382#56| state) (ite (|s382#28| state) #b1 #b0))) 
(define-fun |s382#58| ((state |s382_s|)) (_ BitVec 1) (bvor (|s382#57| state) (|s382#44| state))) 
(define-fun |s382#59| ((state |s382_s|)) (_ BitVec 1) (bvand (|s382#52| state) (|s382#58| state))) 
(define-fun |s382#60| ((state |s382_s|)) (_ BitVec 1) (bvnot (|s382#59| state))) 
(define-fun |s382#61| ((state |s382_s|)) (_ BitVec 1) (bvor (ite (|s382#1| state) #b1 #b0) (|s382#37| state))) 
(define-fun |s382#62| ((state |s382_s|)) (_ BitVec 1) (bvor (|s382#61| state) (|s382#44| state))) 
(define-fun |s382#63| ((state |s382_s|)) (_ BitVec 1) (bvor (|s382#62| state) (ite (|s382#17| state) #b1 #b0))) 
(define-fun |s382#64| ((state |s382_s|)) (_ BitVec 1) (bvnot (|s382#63| state))) 
(define-fun |s382#65| ((state |s382_s|)) (_ BitVec 1) (bvand (|s382#64| state) (|s382#48| state))) 
(define-fun |s382#66| ((state |s382_s|)) (_ BitVec 1) (bvnot (|s382#65| state))) 
(define-fun |s382#67| ((state |s382_s|)) (_ BitVec 1) (bvand (|s382#60| state) (|s382#66| state))) 
(define-fun |s382#68| ((state |s382_s|)) (_ BitVec 1) (bvnot (ite (|s382#28| state) #b1 #b0))) 
(define-fun |s382#69| ((state |s382_s|)) (_ BitVec 1) (bvor (ite (|s382#16| state) #b1 #b0) (|s382#68| state))) 
(define-fun |s382#70| ((state |s382_s|)) (_ BitVec 1) (bvor (|s382#69| state) (ite (|s382#1| state) #b1 #b0))) 
(define-fun |s382#71| ((state |s382_s|)) (_ BitVec 1) (bvor (|s382#44| state) (ite (|s382#28| state) #b1 #b0))) 
(define-fun |s382#72| ((state |s382_s|)) (_ BitVec 1) (bvor (|s382#71| state) (|s382#37| state))) 
(define-fun |s382#73| ((state |s382_s|)) (_ BitVec 1) (bvor (|s382#72| state) (ite (|s382#1| state) #b1 #b0))) 
(define-fun |s382#74| ((state |s382_s|)) (_ BitVec 1) (bvand (|s382#70| state) (|s382#73| state))) 
(define-fun |s382#75| ((state |s382_s|)) (_ BitVec 1) (bvnot (|s382#74| state))) 
(define-fun |s382#76| ((state |s382_s|)) (_ BitVec 1) (bvand (|s382#75| state) (|s382#53| state))) 
(define-fun |s382#77| ((state |s382_s|)) (_ BitVec 1) (bvand (|s382#76| state) (|s382#48| state))) 
(define-fun |s382#78| ((state |s382_s|)) (_ BitVec 1) (bvnot (|s382#77| state))) 
(define-fun |s382#79| ((state |s382_s|)) (_ BitVec 1) (bvand (|s382#60| state) (|s382#78| state))) 
(define-fun |s382#80| ((state |s382_s|)) (_ BitVec 1) (bvnot (|s382#79| state))) 
(define-fun |s382#81| ((state |s382_s|)) (_ BitVec 1) (bvand (|s382#67| state) (|s382#80| state))) 
(define-fun |s382#82| ((state |s382_s|)) (_ BitVec 1) (bvnot (ite (|s382#20| state) #b1 #b0))) 
(define-fun |s382#83| ((state |s382_s|)) (_ BitVec 1) (bvand (|s382#80| state) (|s382#82| state))) 
(define-fun |s382#84| ((state |s382_s|)) (_ BitVec 1) (bvor (|s382#81| state) (|s382#83| state))) 
(define-fun |s382#85| ((state |s382_s|)) (_ BitVec 1) (bvnot (|s382#84| state))) 
(define-fun |s382#86| ((state |s382_s|)) (_ BitVec 1) (bvor (|s382#44| state) (ite (|s382#1| state) #b1 #b0))) 
(define-fun |s382#87| ((state |s382_s|)) (_ BitVec 1) (bvor (ite (|s382#18| state) #b1 #b0) (ite (|s382#17| state) #b1 #b0))) 
(define-fun |s382#88| ((state |s382_s|)) (_ BitVec 1) (bvor (|s382#87| state) (|s382#68| state))) 
(define-fun |s382#89| ((state |s382_s|)) (_ BitVec 1) (bvor (|s382#88| state) (ite (|s382#1| state) #b1 #b0))) 
(define-fun |s382#90| ((state |s382_s|)) (_ BitVec 1) (bvand (|s382#86| state) (|s382#89| state))) 
(define-fun |s382#91| ((state |s382_s|)) (_ BitVec 1) (bvnot (|s382#90| state))) 
(define-fun |s382#92| ((state |s382_s|)) (_ BitVec 1) (bvand (|s382#67| state) (|s382#91| state))) 
(define-fun |s382#93| ((state |s382_s|)) (_ BitVec 1) (bvnot (|s382#67| state))) 
(define-fun |s382#94| ((state |s382_s|)) (_ BitVec 1) (bvand (|s382#93| state) (|s382#82| state))) 
(define-fun |s382#95| ((state |s382_s|)) (_ BitVec 1) (bvor (|s382#92| state) (|s382#94| state))) 
(define-fun |s382#96| ((state |s382_s|)) (_ BitVec 1) (bvnot (|s382#95| state))) 
(define-fun |s382#97| ((state |s382_s|)) (_ BitVec 1) (bvor (ite (|s382#20| state) #b1 #b0) (ite (|s382#21| state) #b1 #b0))) 
(define-fun |s382#98| ((state |s382_s|)) (_ BitVec 1) (bvor (|s382#97| state) (ite (|s382#22| state) #b1 #b0))) 
(define-fun |s382#99| ((state |s382_s|)) (_ BitVec 1) (bvnot (|s382#98| state))) 
(define-fun |s382#100| ((state |s382_s|)) (_ BitVec 1) (bvor (ite (|s382#24| state) #b1 #b0) (ite (|s382#25| state) #b1 #b0))) 
(define-fun |s382#101| ((state |s382_s|)) (_ BitVec 1) (bvor (|s382#100| state) (ite (|s382#26| state) #b1 #b0))) 
(define-fun |s382#102| ((state |s382_s|)) (_ BitVec 1) (bvnot (|s382#101| state))) 
(define-fun |s382#103| ((state |s382_s|)) (_ BitVec 1) (bvnot (ite (|s382#23| state) #b1 #b0))) 
(define-fun |s382#104| ((state |s382_s|)) (_ BitVec 1) (bvor (|s382#102| state) (|s382#103| state))) 
(define-fun |s382#105| ((state |s382_s|)) (_ BitVec 1) (bvnot (|s382#104| state))) 
(define-fun |s382#106| ((state |s382_s|)) (_ BitVec 1) (bvor (|s382#105| state) (ite (|s382#14| state) #b1 #b0))) 
(define-fun |s382#107| ((state |s382_s|)) (_ BitVec 1) (bvnot (|s382#106| state))) 
(define-fun |s382#108| ((state |s382_s|)) (_ BitVec 1) (bvor (|s382#99| state) (|s382#107| state))) 
(define-fun |s382#109| ((state |s382_s|)) (_ BitVec 1) (bvnot (ite (|s382#19| state) #b1 #b0))) 
(define-fun |s382#110| ((state |s382_s|)) (_ BitVec 1) (bvor (|s382#108| state) (|s382#109| state))) 
(define-fun |s382#111| ((state |s382_s|)) (_ BitVec 1) (bvor (|s382#110| state) (|s382#44| state))) 
(define-fun |s382#112| ((state |s382_s|)) (_ BitVec 1) (bvor (|s382#111| state) (|s382#53| state))) 
(define-fun |s382#113| ((state |s382_s|)) (_ BitVec 1) (bvor (|s382#112| state) (|s382#48| state))) 
(define-fun |s382#114| ((state |s382_s|)) (_ BitVec 1) (bvnot (|s382#113| state))) 
(define-fun |s382#115| ((state |s382_s|)) (_ BitVec 1) (bvor (|s382#114| state) (ite (|s382#28| state) #b1 #b0))) 
(define-fun |s382#116| ((state |s382_s|)) (_ BitVec 1) (bvnot (|s382#115| state))) 
(define-fun |s382#117| ((state |s382_s|)) (_ BitVec 1) (bvor (ite (|s382#1| state) #b1 #b0) (|s382#116| state))) 
(define-fun |s382#118| ((state |s382_s|)) (_ BitVec 1) (bvor (ite (|s382#16| state) #b1 #b0) (ite (|s382#17| state) #b1 #b0))) 
(define-fun |s382#119| ((state |s382_s|)) (_ BitVec 1) (bvor (|s382#118| state) (ite (|s382#18| state) #b1 #b0))) 
(define-fun |s382#120| ((state |s382_s|)) (_ BitVec 1) (bvnot (|s382#119| state))) 
(define-fun |s382#121| ((state |s382_s|)) (_ BitVec 1) (bvor (|s382#120| state) (|s382#110| state))) 
(define-fun |s382#122| ((state |s382_s|)) (_ BitVec 1) (bvor (|s382#121| state) (|s382#68| state))) 
(define-fun |s382#123| ((state |s382_s|)) (_ BitVec 1) (bvnot (|s382#122| state))) 
(define-fun |s382#124| ((state |s382_s|)) (_ BitVec 1) (bvor (|s382#117| state) (|s382#123| state))) 
(define-fun |s382#125| ((state |s382_s|)) (_ BitVec 1) (bvnot (|s382#124| state))) 
(define-fun |s382#126| ((state |s382_s|)) (_ BitVec 1) (bvor (ite (|s382#16| state) #b1 #b0) (ite (|s382#28| state) #b1 #b0))) 
(define-fun |s382#127| ((state |s382_s|)) (_ BitVec 1) (bvor (|s382#126| state) (ite (|s382#27| state) #b1 #b0))) 
(define-fun |s382#128| ((state |s382_s|)) (_ BitVec 1) (bvand (|s382#29| state) (|s382#127| state))) 
(define-fun |s382#129| ((state |s382_s|)) (_ BitVec 1) (bvor (|s382#48| state) (ite (|s382#17| state) #b1 #b0))) 
(define-fun |s382#130| ((state |s382_s|)) (_ BitVec 1) (bvor (|s382#129| state) (ite (|s382#16| state) #b1 #b0))) 
(define-fun |s382#131| ((state |s382_s|)) (_ BitVec 1) (bvor (|s382#130| state) (ite (|s382#27| state) #b1 #b0))) 
(define-fun |s382#132| ((state |s382_s|)) (_ BitVec 1) (bvand (|s382#128| state) (|s382#131| state))) 
(define-fun |s382#133| ((state |s382_s|)) (_ BitVec 1) (bvnot (|s382#132| state))) 
(define-fun |s382#134| ((state |s382_s|)) (_ BitVec 1) (bvand (ite (|s382#27| state) #b1 #b0) (|s382#29| state))) 
(define-fun |s382#135| ((state |s382_s|)) (_ BitVec 1) (bvand (|s382#29| state) (ite (|s382#16| state) #b1 #b0))) 
(define-fun |s382#136| ((state |s382_s|)) (_ BitVec 1) (bvor (|s382#134| state) (|s382#135| state))) 
(define-fun |s382#137| ((state |s382_s|)) (_ BitVec 1) (bvand (ite (|s382#18| state) #b1 #b0) (ite (|s382#17| state) #b1 #b0))) 
(define-fun |s382#138| ((state |s382_s|)) (_ BitVec 1) (bvand (|s382#137| state) (|s382#29| state))) 
(define-fun |s382#139| ((state |s382_s|)) (_ BitVec 1) (bvor (|s382#136| state) (|s382#138| state))) 
(define-fun |s382#140| ((state |s382_s|)) (_ BitVec 1) (bvand (|s382#48| state) (ite (|s382#28| state) #b1 #b0))) 
(define-fun |s382#141| ((state |s382_s|)) (_ BitVec 1) (bvand (|s382#140| state) (|s382#29| state))) 
(define-fun |s382#142| ((state |s382_s|)) (_ BitVec 1) (bvor (|s382#139| state) (|s382#141| state))) 
(define-fun |s382#143| ((state |s382_s|)) (_ BitVec 1) (bvnot (|s382#142| state))) 
(define-fun |s382#144| ((state |s382_s|)) (_ BitVec 1) (bvor (|s382#68| state) (|s382#37| state))) 
(define-fun |s382#145| ((state |s382_s|)) (_ BitVec 1) (bvand (|s382#135| state) (|s382#144| state))) 
(define-fun |s382#146| ((state |s382_s|)) (_ BitVec 1) (bvor (|s382#87| state) (|s382#37| state))) 
(define-fun |s382#147| ((state |s382_s|)) (_ BitVec 1) (bvand (|s382#145| state) (|s382#146| state))) 
(define-fun |s382#148| ((state |s382_s|)) (_ BitVec 1) (bvnot (|s382#147| state))) 
(define-fun |s382#149| ((state |s382_s|)) (_ BitVec 1) (bvand (|s382#37| state) (|s382#68| state))) 
(define-fun |s382#150| ((state |s382_s|)) (_ BitVec 1) (bvand (|s382#149| state) (|s382#53| state))) 
(define-fun |s382#151| ((state |s382_s|)) (_ BitVec 1) (bvand (|s382#150| state) (ite (|s382#18| state) #b1 #b0))) 
(define-fun |s382#152| ((state |s382_s|)) (_ BitVec 1) (bvnot (|s382#151| state))) 
(define-fun |s382#153| ((state |s382_s|)) (_ BitVec 1) (bvand (|s382#152| state) (ite (|s382#27| state) #b1 #b0))) 
(define-fun |s382#154| ((state |s382_s|)) (_ BitVec 1) (bvor (|s382#148| state) (|s382#153| state))) 
(define-fun |s382#155| ((state |s382_s|)) (_ BitVec 1) (bvnot (|s382#154| state))) 
(define-fun |s382#156| ((state |s382_s|)) (_ BitVec 1) (bvor (|s382#110| state) (|s382#53| state))) 
(define-fun |s382#157| ((state |s382_s|)) (_ BitVec 1) (bvor (|s382#156| state) (|s382#48| state))) 
(define-fun |s382#158| ((state |s382_s|)) (_ BitVec 1) (bvnot (|s382#157| state))) 
(define-fun |s382#159| ((state |s382_s|)) (_ BitVec 1) (bvor (|s382#158| state) (ite (|s382#16| state) #b1 #b0))) 
(define-fun |s382#160| ((state |s382_s|)) (_ BitVec 1) (bvand (|s382#158| state) (ite (|s382#16| state) #b1 #b0))) 
(define-fun |s382#161| ((state |s382_s|)) (_ BitVec 1) (bvnot (|s382#160| state))) 
(define-fun |s382#162| ((state |s382_s|)) (_ BitVec 1) (bvand (|s382#159| state) (|s382#161| state))) 
(define-fun |s382#163| ((state |s382_s|)) (_ BitVec 1) (bvnot (|s382#162| state))) 
(define-fun |s382#164| ((state |s382_s|)) (_ BitVec 1) (bvor (ite (|s382#1| state) #b1 #b0) (|s382#163| state))) 
(define-fun |s382#165| ((state |s382_s|)) (_ BitVec 1) (bvor (|s382#164| state) (|s382#123| state))) 
(define-fun |s382#166| ((state |s382_s|)) (_ BitVec 1) (bvnot (|s382#165| state))) 
(define-fun |s382#167| ((state |s382_s|)) (_ BitVec 1) (bvor (|s382#110| state) (|s382#48| state))) 
(define-fun |s382#168| ((state |s382_s|)) (_ BitVec 1) (bvnot (|s382#167| state))) 
(define-fun |s382#169| ((state |s382_s|)) (_ BitVec 1) (bvor (|s382#168| state) (ite (|s382#17| state) #b1 #b0))) 
(define-fun |s382#170| ((state |s382_s|)) (_ BitVec 1) (bvand (|s382#168| state) (ite (|s382#17| state) #b1 #b0))) 
(define-fun |s382#171| ((state |s382_s|)) (_ BitVec 1) (bvnot (|s382#170| state))) 
(define-fun |s382#172| ((state |s382_s|)) (_ BitVec 1) (bvand (|s382#169| state) (|s382#171| state))) 
(define-fun |s382#173| ((state |s382_s|)) (_ BitVec 1) (bvnot (|s382#172| state))) 
(define-fun |s382#174| ((state |s382_s|)) (_ BitVec 1) (bvor (ite (|s382#1| state) #b1 #b0) (|s382#173| state))) 
(define-fun |s382#175| ((state |s382_s|)) (_ BitVec 1) (bvor (|s382#174| state) (|s382#123| state))) 
(define-fun |s382#176| ((state |s382_s|)) (_ BitVec 1) (bvnot (|s382#175| state))) 
(define-fun |s382#177| ((state |s382_s|)) (_ BitVec 1) (bvnot (|s382#110| state))) 
(define-fun |s382#178| ((state |s382_s|)) (_ BitVec 1) (bvor (|s382#177| state) (ite (|s382#18| state) #b1 #b0))) 
(define-fun |s382#179| ((state |s382_s|)) (_ BitVec 1) (bvand (|s382#177| state) (ite (|s382#18| state) #b1 #b0))) 
(define-fun |s382#180| ((state |s382_s|)) (_ BitVec 1) (bvnot (|s382#179| state))) 
(define-fun |s382#181| ((state |s382_s|)) (_ BitVec 1) (bvand (|s382#178| state) (|s382#180| state))) 
(define-fun |s382#182| ((state |s382_s|)) (_ BitVec 1) (bvnot (|s382#181| state))) 
(define-fun |s382#183| ((state |s382_s|)) (_ BitVec 1) (bvor (ite (|s382#1| state) #b1 #b0) (|s382#182| state))) 
(define-fun |s382#184| ((state |s382_s|)) (_ BitVec 1) (bvor (|s382#183| state) (|s382#123| state))) 
(define-fun |s382#185| ((state |s382_s|)) (_ BitVec 1) (bvnot (|s382#184| state))) 
(define-fun |s382#186| ((state |s382_s|)) (_ BitVec 1) (bvor (|s382#107| state) (|s382#82| state))) 
(define-fun |s382#187| ((state |s382_s|)) (_ BitVec 1) (bvnot (ite (|s382#21| state) #b1 #b0))) 
(define-fun |s382#188| ((state |s382_s|)) (_ BitVec 1) (bvor (|s382#186| state) (|s382#187| state))) 
(define-fun |s382#189| ((state |s382_s|)) (_ BitVec 1) (bvnot (ite (|s382#22| state) #b1 #b0))) 
(define-fun |s382#190| ((state |s382_s|)) (_ BitVec 1) (bvor (|s382#188| state) (|s382#189| state))) 
(define-fun |s382#191| ((state |s382_s|)) (_ BitVec 1) (bvnot (|s382#190| state))) 
(define-fun |s382#192| ((state |s382_s|)) (_ BitVec 1) (bvor (|s382#191| state) (ite (|s382#19| state) #b1 #b0))) 
(define-fun |s382#193| ((state |s382_s|)) (_ BitVec 1) (bvnot (|s382#192| state))) 
(define-fun |s382#194| ((state |s382_s|)) (_ BitVec 1) (bvor (ite (|s382#1| state) #b1 #b0) (|s382#193| state))) 
(define-fun |s382#195| ((state |s382_s|)) (_ BitVec 1) (bvor (|s382#194| state) (|s382#177| state))) 
(define-fun |s382#196| ((state |s382_s|)) (_ BitVec 1) (bvnot (|s382#195| state))) 
(define-fun |s382#197| ((state |s382_s|)) (_ BitVec 1) (bvor (|s382#107| state) (|s382#187| state))) 
(define-fun |s382#198| ((state |s382_s|)) (_ BitVec 1) (bvor (|s382#197| state) (|s382#189| state))) 
(define-fun |s382#199| ((state |s382_s|)) (_ BitVec 1) (bvnot (|s382#198| state))) 
(define-fun |s382#200| ((state |s382_s|)) (_ BitVec 1) (bvor (|s382#199| state) (ite (|s382#20| state) #b1 #b0))) 
(define-fun |s382#201| ((state |s382_s|)) (_ BitVec 1) (bvand (|s382#199| state) (ite (|s382#20| state) #b1 #b0))) 
(define-fun |s382#202| ((state |s382_s|)) (_ BitVec 1) (bvnot (|s382#201| state))) 
(define-fun |s382#203| ((state |s382_s|)) (_ BitVec 1) (bvand (|s382#200| state) (|s382#202| state))) 
(define-fun |s382#204| ((state |s382_s|)) (_ BitVec 1) (bvnot (|s382#203| state))) 
(define-fun |s382#205| ((state |s382_s|)) (_ BitVec 1) (bvor (ite (|s382#1| state) #b1 #b0) (|s382#204| state))) 
(define-fun |s382#206| ((state |s382_s|)) (_ BitVec 1) (bvor (|s382#205| state) (|s382#177| state))) 
(define-fun |s382#207| ((state |s382_s|)) (_ BitVec 1) (bvnot (|s382#206| state))) 
(define-fun |s382#208| ((state |s382_s|)) (_ BitVec 1) (bvor (|s382#107| state) (|s382#189| state))) 
(define-fun |s382#209| ((state |s382_s|)) (_ BitVec 1) (bvnot (|s382#208| state))) 
(define-fun |s382#210| ((state |s382_s|)) (_ BitVec 1) (bvor (|s382#209| state) (ite (|s382#21| state) #b1 #b0))) 
(define-fun |s382#211| ((state |s382_s|)) (_ BitVec 1) (bvand (|s382#209| state) (ite (|s382#21| state) #b1 #b0))) 
(define-fun |s382#212| ((state |s382_s|)) (_ BitVec 1) (bvnot (|s382#211| state))) 
(define-fun |s382#213| ((state |s382_s|)) (_ BitVec 1) (bvand (|s382#210| state) (|s382#212| state))) 
(define-fun |s382#214| ((state |s382_s|)) (_ BitVec 1) (bvnot (|s382#213| state))) 
(define-fun |s382#215| ((state |s382_s|)) (_ BitVec 1) (bvor (ite (|s382#1| state) #b1 #b0) (|s382#214| state))) 
(define-fun |s382#216| ((state |s382_s|)) (_ BitVec 1) (bvor (|s382#215| state) (|s382#177| state))) 
(define-fun |s382#217| ((state |s382_s|)) (_ BitVec 1) (bvnot (|s382#216| state))) 
(define-fun |s382#218| ((state |s382_s|)) (_ BitVec 1) (bvor (|s382#106| state) (ite (|s382#22| state) #b1 #b0))) 
(define-fun |s382#219| ((state |s382_s|)) (_ BitVec 1) (bvand (|s382#106| state) (ite (|s382#22| state) #b1 #b0))) 
(define-fun |s382#220| ((state |s382_s|)) (_ BitVec 1) (bvnot (|s382#219| state))) 
(define-fun |s382#221| ((state |s382_s|)) (_ BitVec 1) (bvand (|s382#218| state) (|s382#220| state))) 
(define-fun |s382#222| ((state |s382_s|)) (_ BitVec 1) (bvnot (|s382#221| state))) 
(define-fun |s382#223| ((state |s382_s|)) (_ BitVec 1) (bvor (ite (|s382#1| state) #b1 #b0) (|s382#222| state))) 
(define-fun |s382#224| ((state |s382_s|)) (_ BitVec 1) (bvor (|s382#223| state) (|s382#177| state))) 
(define-fun |s382#225| ((state |s382_s|)) (_ BitVec 1) (bvnot (|s382#224| state))) 
(define-fun |s382#226| ((state |s382_s|)) (_ BitVec 1) (bvnot (ite (|s382#24| state) #b1 #b0))) 
(define-fun |s382#227| ((state |s382_s|)) (_ BitVec 1) (bvnot (ite (|s382#25| state) #b1 #b0))) 
(define-fun |s382#228| ((state |s382_s|)) (_ BitVec 1) (bvor (|s382#226| state) (|s382#227| state))) 
(define-fun |s382#229| ((state |s382_s|)) (_ BitVec 1) (bvnot (ite (|s382#26| state) #b1 #b0))) 
(define-fun |s382#230| ((state |s382_s|)) (_ BitVec 1) (bvor (|s382#228| state) (|s382#229| state))) 
(define-fun |s382#231| ((state |s382_s|)) (_ BitVec 1) (bvnot (|s382#230| state))) 
(define-fun |s382#232| ((state |s382_s|)) (_ BitVec 1) (bvor (|s382#231| state) (ite (|s382#23| state) #b1 #b0))) 
(define-fun |s382#233| ((state |s382_s|)) (_ BitVec 1) (bvnot (|s382#232| state))) 
(define-fun |s382#234| ((state |s382_s|)) (_ BitVec 1) (bvor (ite (|s382#1| state) #b1 #b0) (|s382#233| state))) 
(define-fun |s382#235| ((state |s382_s|)) (_ BitVec 1) (bvor (|s382#234| state) (|s382#105| state))) 
(define-fun |s382#236| ((state |s382_s|)) (_ BitVec 1) (bvnot (|s382#235| state))) 
(define-fun |s382#237| ((state |s382_s|)) (_ BitVec 1) (bvor (|s382#227| state) (|s382#229| state))) 
(define-fun |s382#238| ((state |s382_s|)) (_ BitVec 1) (bvnot (|s382#237| state))) 
(define-fun |s382#239| ((state |s382_s|)) (_ BitVec 1) (bvor (|s382#238| state) (ite (|s382#24| state) #b1 #b0))) 
(define-fun |s382#240| ((state |s382_s|)) (_ BitVec 1) (bvand (|s382#238| state) (ite (|s382#24| state) #b1 #b0))) 
(define-fun |s382#241| ((state |s382_s|)) (_ BitVec 1) (bvnot (|s382#240| state))) 
(define-fun |s382#242| ((state |s382_s|)) (_ BitVec 1) (bvand (|s382#239| state) (|s382#241| state))) 
(define-fun |s382#243| ((state |s382_s|)) (_ BitVec 1) (bvnot (|s382#242| state))) 
(define-fun |s382#244| ((state |s382_s|)) (_ BitVec 1) (bvor (ite (|s382#1| state) #b1 #b0) (|s382#243| state))) 
(define-fun |s382#245| ((state |s382_s|)) (_ BitVec 1) (bvor (|s382#244| state) (|s382#105| state))) 
(define-fun |s382#246| ((state |s382_s|)) (_ BitVec 1) (bvnot (|s382#245| state))) 
(define-fun |s382#247| ((state |s382_s|)) (_ BitVec 1) (bvor (ite (|s382#26| state) #b1 #b0) (ite (|s382#25| state) #b1 #b0))) 
(define-fun |s382#248| ((state |s382_s|)) (_ BitVec 1) (bvand (ite (|s382#26| state) #b1 #b0) (ite (|s382#25| state) #b1 #b0))) 
(define-fun |s382#249| ((state |s382_s|)) (_ BitVec 1) (bvnot (|s382#248| state))) 
(define-fun |s382#250| ((state |s382_s|)) (_ BitVec 1) (bvand (|s382#247| state) (|s382#249| state))) 
(define-fun |s382#251| ((state |s382_s|)) (_ BitVec 1) (bvnot (|s382#250| state))) 
(define-fun |s382#252| ((state |s382_s|)) (_ BitVec 1) (bvor (ite (|s382#1| state) #b1 #b0) (|s382#251| state))) 
(define-fun |s382#253| ((state |s382_s|)) (_ BitVec 1) (bvor (|s382#252| state) (|s382#105| state))) 
(define-fun |s382#254| ((state |s382_s|)) (_ BitVec 1) (bvnot (|s382#253| state))) 
(define-fun |s382#255| ((state |s382_s|)) (_ BitVec 1) (bvor (ite (|s382#1| state) #b1 #b0) (ite (|s382#26| state) #b1 #b0))) 
(define-fun |s382#256| ((state |s382_s|)) (_ BitVec 1) (bvor (|s382#255| state) (|s382#105| state))) 
(define-fun |s382#257| ((state |s382_s|)) (_ BitVec 1) (bvnot (|s382#256| state))) 
(define-fun |s382_a| ((state |s382_s|)) Bool (and
  (|dff_a| (|s382_h DFF_0| state))
  (|dff_a| (|s382_h DFF_1| state))
  (|dff_a| (|s382_h DFF_2| state))
  (|dff_a| (|s382_h DFF_3| state))
  (|dff_a| (|s382_h DFF_4| state))
  (|dff_a| (|s382_h DFF_9| state))
  (|dff_a| (|s382_h DFF_5| state))
  (|dff_a| (|s382_h DFF_6| state))
  (|dff_a| (|s382_h DFF_7| state))
  (|dff_a| (|s382_h DFF_8| state))
  (|dff_a| (|s382_h DFF_10| state))
  (|dff_a| (|s382_h DFF_11| state))
  (|dff_a| (|s382_h DFF_12| state))
  (|dff_a| (|s382_h DFF_13| state))
  (|dff_a| (|s382_h DFF_14| state))
  (|dff_a| (|s382_h DFF_15| state))
  (|dff_a| (|s382_h DFF_16| state))
  (|dff_a| (|s382_h DFF_17| state))
  (|dff_a| (|s382_h DFF_18| state))
  (|dff_a| (|s382_h DFF_19| state))
  (|dff_a| (|s382_h DFF_20| state))
))
(define-fun |s382_u| ((state |s382_s|)) Bool (and
  (|dff_u| (|s382_h DFF_0| state))
  (|dff_u| (|s382_h DFF_1| state))
  (|dff_u| (|s382_h DFF_2| state))
  (|dff_u| (|s382_h DFF_3| state))
  (|dff_u| (|s382_h DFF_4| state))
  (|dff_u| (|s382_h DFF_9| state))
  (|dff_u| (|s382_h DFF_5| state))
  (|dff_u| (|s382_h DFF_6| state))
  (|dff_u| (|s382_h DFF_7| state))
  (|dff_u| (|s382_h DFF_8| state))
  (|dff_u| (|s382_h DFF_10| state))
  (|dff_u| (|s382_h DFF_11| state))
  (|dff_u| (|s382_h DFF_12| state))
  (|dff_u| (|s382_h DFF_13| state))
  (|dff_u| (|s382_h DFF_14| state))
  (|dff_u| (|s382_h DFF_15| state))
  (|dff_u| (|s382_h DFF_16| state))
  (|dff_u| (|s382_h DFF_17| state))
  (|dff_u| (|s382_h DFF_18| state))
  (|dff_u| (|s382_h DFF_19| state))
  (|dff_u| (|s382_h DFF_20| state))
))
(define-fun |s382_i| ((state |s382_s|)) Bool (and
  (|dff_i| (|s382_h DFF_0| state))
  (|dff_i| (|s382_h DFF_1| state))
  (|dff_i| (|s382_h DFF_2| state))
  (|dff_i| (|s382_h DFF_3| state))
  (|dff_i| (|s382_h DFF_4| state))
  (|dff_i| (|s382_h DFF_9| state))
  (|dff_i| (|s382_h DFF_5| state))
  (|dff_i| (|s382_h DFF_6| state))
  (|dff_i| (|s382_h DFF_7| state))
  (|dff_i| (|s382_h DFF_8| state))
  (|dff_i| (|s382_h DFF_10| state))
  (|dff_i| (|s382_h DFF_11| state))
  (|dff_i| (|s382_h DFF_12| state))
  (|dff_i| (|s382_h DFF_13| state))
  (|dff_i| (|s382_h DFF_14| state))
  (|dff_i| (|s382_h DFF_15| state))
  (|dff_i| (|s382_h DFF_16| state))
  (|dff_i| (|s382_h DFF_17| state))
  (|dff_i| (|s382_h DFF_18| state))
  (|dff_i| (|s382_h DFF_19| state))
  (|dff_i| (|s382_h DFF_20| state))
))
(define-fun |s382_h| ((state |s382_s|)) Bool (and
  (= (|s382_is| state) (|dff_is| (|s382_h DFF_0| state)))
  (= (|s382#0| state) (|dff_n CK| (|s382_h DFF_0| state))) 
  (= (= ((_ extract 0 0) (|s382#35| state)) #b1) (|dff_n D| (|s382_h DFF_0| state))) 
  (= (|s382#14| state) (|dff_n Q| (|s382_h DFF_0| state))) 
  (= (|s382_is| state) (|dff_is| (|s382_h DFF_1| state)))
  (= (|s382#0| state) (|dff_n CK| (|s382_h DFF_1| state))) 
  (= (= ((_ extract 0 0) (|s382#41| state)) #b1) (|dff_n D| (|s382_h DFF_1| state))) 
  (= (|s382#15| state) (|dff_n Q| (|s382_h DFF_1| state))) 
  (= (|s382_is| state) (|dff_is| (|s382_h DFF_2| state)))
  (= (|s382#0| state) (|dff_n CK| (|s382_h DFF_2| state))) 
  (= (= ((_ extract 0 0) (|s382#50| state)) #b1) (|dff_n D| (|s382_h DFF_2| state))) 
  (= (|s382#13| state) (|dff_n Q| (|s382_h DFF_2| state))) 
  (= (|s382_is| state) (|dff_is| (|s382_h DFF_3| state)))
  (= (|s382#0| state) (|dff_n CK| (|s382_h DFF_3| state))) 
  (= (= ((_ extract 0 0) (|s382#85| state)) #b1) (|dff_n D| (|s382_h DFF_3| state))) 
  (= (|s382#11| state) (|dff_n Q| (|s382_h DFF_3| state))) 
  (= (|s382_is| state) (|dff_is| (|s382_h DFF_4| state)))
  (= (|s382#0| state) (|dff_n CK| (|s382_h DFF_4| state))) 
  (= (= ((_ extract 0 0) (|s382#96| state)) #b1) (|dff_n D| (|s382_h DFF_4| state))) 
  (= (|s382#7| state) (|dff_n Q| (|s382_h DFF_4| state))) 
  (= (|s382_is| state) (|dff_is| (|s382_h DFF_9| state)))
  (= (|s382#0| state) (|dff_n CK| (|s382_h DFF_9| state))) 
  (= (= ((_ extract 0 0) (|s382#125| state)) #b1) (|dff_n D| (|s382_h DFF_9| state))) 
  (= (|s382#28| state) (|dff_n Q| (|s382_h DFF_9| state))) 
  (= (|s382_is| state) (|dff_is| (|s382_h DFF_5| state)))
  (= (|s382#0| state) (|dff_n CK| (|s382_h DFF_5| state))) 
  (= (= ((_ extract 0 0) (|s382#133| state)) #b1) (|dff_n D| (|s382_h DFF_5| state))) 
  (= (|s382#6| state) (|dff_n Q| (|s382_h DFF_5| state))) 
  (= (|s382_is| state) (|dff_is| (|s382_h DFF_6| state)))
  (= (|s382#0| state) (|dff_n CK| (|s382_h DFF_6| state))) 
  (= (= ((_ extract 0 0) (|s382#143| state)) #b1) (|dff_n D| (|s382_h DFF_6| state))) 
  (= (|s382#5| state) (|dff_n Q| (|s382_h DFF_6| state))) 
  (= (|s382_is| state) (|dff_is| (|s382_h DFF_7| state)))
  (= (|s382#0| state) (|dff_n CK| (|s382_h DFF_7| state))) 
  (= (= ((_ extract 0 0) (|s382#155| state)) #b1) (|dff_n D| (|s382_h DFF_7| state))) 
  (= (|s382#4| state) (|dff_n Q| (|s382_h DFF_7| state))) 
  (= (|s382_is| state) (|dff_is| (|s382_h DFF_8| state)))
  (= (|s382#0| state) (|dff_n CK| (|s382_h DFF_8| state))) 
  (= (= ((_ extract 0 0) (|s382#93| state)) #b1) (|dff_n D| (|s382_h DFF_8| state))) 
  (= (|s382#27| state) (|dff_n Q| (|s382_h DFF_8| state))) 
  (= (|s382_is| state) (|dff_is| (|s382_h DFF_10| state)))
  (= (|s382#0| state) (|dff_n CK| (|s382_h DFF_10| state))) 
  (= (= ((_ extract 0 0) (|s382#166| state)) #b1) (|dff_n D| (|s382_h DFF_10| state))) 
  (= (|s382#16| state) (|dff_n Q| (|s382_h DFF_10| state))) 
  (= (|s382_is| state) (|dff_is| (|s382_h DFF_11| state)))
  (= (|s382#0| state) (|dff_n CK| (|s382_h DFF_11| state))) 
  (= (= ((_ extract 0 0) (|s382#176| state)) #b1) (|dff_n D| (|s382_h DFF_11| state))) 
  (= (|s382#17| state) (|dff_n Q| (|s382_h DFF_11| state))) 
  (= (|s382_is| state) (|dff_is| (|s382_h DFF_12| state)))
  (= (|s382#0| state) (|dff_n CK| (|s382_h DFF_12| state))) 
  (= (= ((_ extract 0 0) (|s382#185| state)) #b1) (|dff_n D| (|s382_h DFF_12| state))) 
  (= (|s382#18| state) (|dff_n Q| (|s382_h DFF_12| state))) 
  (= (|s382_is| state) (|dff_is| (|s382_h DFF_13| state)))
  (= (|s382#0| state) (|dff_n CK| (|s382_h DFF_13| state))) 
  (= (= ((_ extract 0 0) (|s382#196| state)) #b1) (|dff_n D| (|s382_h DFF_13| state))) 
  (= (|s382#19| state) (|dff_n Q| (|s382_h DFF_13| state))) 
  (= (|s382_is| state) (|dff_is| (|s382_h DFF_14| state)))
  (= (|s382#0| state) (|dff_n CK| (|s382_h DFF_14| state))) 
  (= (= ((_ extract 0 0) (|s382#207| state)) #b1) (|dff_n D| (|s382_h DFF_14| state))) 
  (= (|s382#20| state) (|dff_n Q| (|s382_h DFF_14| state))) 
  (= (|s382_is| state) (|dff_is| (|s382_h DFF_15| state)))
  (= (|s382#0| state) (|dff_n CK| (|s382_h DFF_15| state))) 
  (= (= ((_ extract 0 0) (|s382#217| state)) #b1) (|dff_n D| (|s382_h DFF_15| state))) 
  (= (|s382#21| state) (|dff_n Q| (|s382_h DFF_15| state))) 
  (= (|s382_is| state) (|dff_is| (|s382_h DFF_16| state)))
  (= (|s382#0| state) (|dff_n CK| (|s382_h DFF_16| state))) 
  (= (= ((_ extract 0 0) (|s382#225| state)) #b1) (|dff_n D| (|s382_h DFF_16| state))) 
  (= (|s382#22| state) (|dff_n Q| (|s382_h DFF_16| state))) 
  (= (|s382_is| state) (|dff_is| (|s382_h DFF_17| state)))
  (= (|s382#0| state) (|dff_n CK| (|s382_h DFF_17| state))) 
  (= (= ((_ extract 0 0) (|s382#236| state)) #b1) (|dff_n D| (|s382_h DFF_17| state))) 
  (= (|s382#23| state) (|dff_n Q| (|s382_h DFF_17| state))) 
  (= (|s382_is| state) (|dff_is| (|s382_h DFF_18| state)))
  (= (|s382#0| state) (|dff_n CK| (|s382_h DFF_18| state))) 
  (= (= ((_ extract 0 0) (|s382#246| state)) #b1) (|dff_n D| (|s382_h DFF_18| state))) 
  (= (|s382#24| state) (|dff_n Q| (|s382_h DFF_18| state))) 
  (= (|s382_is| state) (|dff_is| (|s382_h DFF_19| state)))
  (= (|s382#0| state) (|dff_n CK| (|s382_h DFF_19| state))) 
  (= (= ((_ extract 0 0) (|s382#254| state)) #b1) (|dff_n D| (|s382_h DFF_19| state))) 
  (= (|s382#25| state) (|dff_n Q| (|s382_h DFF_19| state))) 
  (= (|s382_is| state) (|dff_is| (|s382_h DFF_20| state)))
  (= (|s382#0| state) (|dff_n CK| (|s382_h DFF_20| state))) 
  (= (= ((_ extract 0 0) (|s382#257| state)) #b1) (|dff_n D| (|s382_h DFF_20| state))) 
  (= (|s382#26| state) (|dff_n Q| (|s382_h DFF_20| state))) 
  (|dff_h| (|s382_h DFF_0| state))
  (|dff_h| (|s382_h DFF_1| state))
  (|dff_h| (|s382_h DFF_2| state))
  (|dff_h| (|s382_h DFF_3| state))
  (|dff_h| (|s382_h DFF_4| state))
  (|dff_h| (|s382_h DFF_9| state))
  (|dff_h| (|s382_h DFF_5| state))
  (|dff_h| (|s382_h DFF_6| state))
  (|dff_h| (|s382_h DFF_7| state))
  (|dff_h| (|s382_h DFF_8| state))
  (|dff_h| (|s382_h DFF_10| state))
  (|dff_h| (|s382_h DFF_11| state))
  (|dff_h| (|s382_h DFF_12| state))
  (|dff_h| (|s382_h DFF_13| state))
  (|dff_h| (|s382_h DFF_14| state))
  (|dff_h| (|s382_h DFF_15| state))
  (|dff_h| (|s382_h DFF_16| state))
  (|dff_h| (|s382_h DFF_17| state))
  (|dff_h| (|s382_h DFF_18| state))
  (|dff_h| (|s382_h DFF_19| state))
  (|dff_h| (|s382_h DFF_20| state))
))
(define-fun |s382_t| ((state |s382_s|) (next_state |s382_s|)) Bool (and
  (|dff_t| (|s382_h DFF_0| state) (|s382_h DFF_0| next_state))
  (|dff_t| (|s382_h DFF_1| state) (|s382_h DFF_1| next_state))
  (|dff_t| (|s382_h DFF_2| state) (|s382_h DFF_2| next_state))
  (|dff_t| (|s382_h DFF_3| state) (|s382_h DFF_3| next_state))
  (|dff_t| (|s382_h DFF_4| state) (|s382_h DFF_4| next_state))
  (|dff_t| (|s382_h DFF_9| state) (|s382_h DFF_9| next_state))
  (|dff_t| (|s382_h DFF_5| state) (|s382_h DFF_5| next_state))
  (|dff_t| (|s382_h DFF_6| state) (|s382_h DFF_6| next_state))
  (|dff_t| (|s382_h DFF_7| state) (|s382_h DFF_7| next_state))
  (|dff_t| (|s382_h DFF_8| state) (|s382_h DFF_8| next_state))
  (|dff_t| (|s382_h DFF_10| state) (|s382_h DFF_10| next_state))
  (|dff_t| (|s382_h DFF_11| state) (|s382_h DFF_11| next_state))
  (|dff_t| (|s382_h DFF_12| state) (|s382_h DFF_12| next_state))
  (|dff_t| (|s382_h DFF_13| state) (|s382_h DFF_13| next_state))
  (|dff_t| (|s382_h DFF_14| state) (|s382_h DFF_14| next_state))
  (|dff_t| (|s382_h DFF_15| state) (|s382_h DFF_15| next_state))
  (|dff_t| (|s382_h DFF_16| state) (|s382_h DFF_16| next_state))
  (|dff_t| (|s382_h DFF_17| state) (|s382_h DFF_17| next_state))
  (|dff_t| (|s382_h DFF_18| state) (|s382_h DFF_18| next_state))
  (|dff_t| (|s382_h DFF_19| state) (|s382_h DFF_19| next_state))
  (|dff_t| (|s382_h DFF_20| state) (|s382_h DFF_20| next_state))
)) 

